% Logging successfully configured
%%%mzn-stat: initTime=0.022007596
%%%mzn-stat: objective=628
%%%mzn-stat: nodes=45026
%%%mzn-stat: restarts=0
%%%mzn-stat: peakDepth=1176
%%%mzn-stat: solveTime=11.901000055
%%%mzn-stat: variables=1774
%%%mzn-stat: propagators=1432
%%%mzn-stat: failures=12883
%%%mzn-stat: propagations=481775
%%%mzn-stat: nogoods=12883
%%%mzn-stat: numAtomicConstraintsPropagated=0
%%%mzn-stat: allDifferentNumber1TotalHallSetSize=322813
%%%mzn-stat: allDifferentNumber1NumberOfConflicts=11859
%%%mzn-stat: allDifferentNumber1MaxHallSetSize=148
%%%mzn-stat: allDifferentNumber1PropagationsTotal=82352
%%%mzn-stat: allDifferentNumber1PropagationsThatFoundConflict=11859
%%%mzn-stat: circuitNumber2PropagationsThatFoundConflict=106
%%%mzn-stat: circuitNumber2TotalFixedEdgesAtConflict=11208
%%%mzn-stat: circuitNumber2NumberOfConflicts=106
%%%mzn-stat: circuitNumber2PropagationsThatPruned=2975
%%%mzn-stat: circuitNumber2PropagationsTotal=46163
%%%mzn-stat: AverageConflictSize=34.414266863308235
%%%mzn-stat: NumUnitNogoodsLearned=0
%%%mzn-stat: AverageLearnedNogoodLength=53.42303811224094
%%%mzn-stat: AverageBacktrackAmount=0
%%%mzn-stat: AverageLbd=38.85119925483195
%%%mzn-stat: 2AutonomousSearchNumBackupCalled=1056
%%%mzn-stat: 2AutonomousSearchNumPredicatesRemoved=0
%%%mzn-stat: 2AutonomousSearchNumCalls=1057
%%%mzn-stat: 2AutonomousSearchNumPredicatesAdded=6299
%%%mzn-stat: 2AutonomousSearchAverageSizeOfHeap=5.959318826868496
%%%mzn-stat: 2AutonomousSearchNumAssignedPredicatesEncountered=6299
%%%mzn-stat-end
maxleg = 628;
succ = array1d(1..150,[26, 10, 14, 63, 22, 23, 29, 15, 18, 27, 13, 2, 43, 40, 48, 25, 19, 53, 9, 61, 41, 45, 52, 8, 5, 36, 72, 59, 33, 38, 12, 6, 68, 32, 24, 50, 16, 39, 47, 44, 66, 34, 51, 122, 78, 7, 49, 56, 67, 31, 65, 79, 76, 1, 62, 69, 77, 17, 60, 70, 73, 95, 132, 35, 87, 94, 128, 97, 101, 84, 103, 147, 85, 64, 54, 80, 106, 92, 46, 30, 21, 81, 123, 130, 96, 118, 140, 4, 135, 138, 93, 57, 102, 115, 90, 83, 105, 107, 11, 20, 141, 100, 111, 55, 110, 145, 142, 71, 116, 144, 112, 127, 139, 91, 117, 88, 124, 82, 58, 129, 114, 125, 98, 126, 150, 99, 120, 148, 113, 146, 104, 134, 149, 137, 42, 86, 3, 143, 75, 108, 28, 136, 109, 37, 74, 119, 89, 133, 131, 121]);
% time elapsed: 13.22 s
----------
%%%mzn-stat: initTime=0.022007596
%%%mzn-stat: objective=204
%%%mzn-stat: nodes=252757
%%%mzn-stat: restarts=0
%%%mzn-stat: peakDepth=1176
%%%mzn-stat: solveTime=174.541225782
%%%mzn-stat: variables=1774
%%%mzn-stat: propagators=1432
%%%mzn-stat: failures=167254
%%%mzn-stat: propagations=4323407
%%%mzn-stat: nogoods=167254
%%%mzn-stat: numAtomicConstraintsPropagated=0
%%%mzn-stat: allDifferentNumber1TotalHallSetSize=4383481
%%%mzn-stat: allDifferentNumber1NumberOfConflicts=148702
%%%mzn-stat: allDifferentNumber1MaxHallSetSize=148
%%%mzn-stat: allDifferentNumber1PropagationsTotal=641398
%%%mzn-stat: allDifferentNumber1PropagationsThatFoundConflict=148702
%%%mzn-stat: circuitNumber2PropagationsThatFoundConflict=1647
%%%mzn-stat: circuitNumber2TotalFixedEdgesAtConflict=170440
%%%mzn-stat: circuitNumber2NumberOfConflicts=1647
%%%mzn-stat: circuitNumber2PropagationsThatPruned=50417
%%%mzn-stat: circuitNumber2PropagationsTotal=323549
%%%mzn-stat: AverageConflictSize=45.88894734954022
%%%mzn-stat: NumUnitNogoodsLearned=0
%%%mzn-stat: AverageLearnedNogoodLength=67.84392002582898
%%%mzn-stat: AverageBacktrackAmount=0
%%%mzn-stat: AverageLbd=40.35239814892319
%%%mzn-stat: 2AutonomousSearchNumBackupCalled=2079
%%%mzn-stat: 2AutonomousSearchNumPredicatesRemoved=0
%%%mzn-stat: 2AutonomousSearchNumCalls=2081
%%%mzn-stat: 2AutonomousSearchNumPredicatesAdded=14065
%%%mzn-stat: 2AutonomousSearchAverageSizeOfHeap=7.445939452186449
%%%mzn-stat: 2AutonomousSearchNumAssignedPredicatesEncountered=15495
%%%mzn-stat-end
maxleg = 204;
succ = array1d(1..150,[26, 10, 14, 63, 22, 23, 29, 15, 18, 27, 13, 2, 43, 40, 48, 25, 19, 53, 9, 61, 41, 45, 52, 8, 5, 36, 72, 59, 33, 38, 12, 6, 68, 32, 24, 50, 16, 39, 47, 44, 66, 34, 51, 122, 78, 7, 49, 56, 67, 31, 65, 79, 76, 1, 62, 69, 77, 17, 60, 70, 73, 95, 132, 35, 87, 94, 128, 97, 101, 84, 108, 147, 85, 64, 54, 80, 103, 92, 46, 30, 21, 81, 96, 130, 109, 136, 140, 4, 135, 138, 93, 57, 86, 115, 90, 121, 105, 107, 11, 88, 141, 91, 118, 55, 110, 145, 142, 127, 116, 144, 106, 111, 139, 113, 117, 100, 124, 82, 58, 129, 114, 125, 98, 126, 150, 99, 120, 148, 112, 146, 104, 134, 149, 137, 42, 123, 3, 143, 75, 71, 28, 83, 20, 37, 74, 119, 89, 133, 131, 102]);
% time elapsed: 175.85 s
----------
%%%mzn-stat: initTime=0.022007596
%%%mzn-stat: objective=175
%%%mzn-stat: nodes=5101018
%%%mzn-stat: restarts=0
%%%mzn-stat: peakDepth=1176
%%%mzn-stat: solveTime=1049.636595616
%%%mzn-stat: variables=1774
%%%mzn-stat: propagators=1432
%%%mzn-stat: failures=425981
%%%mzn-stat: propagations=48493806
%%%mzn-stat: nogoods=425981
%%%mzn-stat: numAtomicConstraintsPropagated=0
%%%mzn-stat: allDifferentNumber1TotalHallSetSize=4870038
%%%mzn-stat: allDifferentNumber1NumberOfConflicts=297072
%%%mzn-stat: allDifferentNumber1MaxHallSetSize=148
%%%mzn-stat: allDifferentNumber1PropagationsTotal=8783768
%%%mzn-stat: allDifferentNumber1PropagationsThatFoundConflict=297072
%%%mzn-stat: circuitNumber2PropagationsThatFoundConflict=101521
%%%mzn-stat: circuitNumber2TotalFixedEdgesAtConflict=8754488
%%%mzn-stat: circuitNumber2NumberOfConflicts=101521
%%%mzn-stat: circuitNumber2PropagationsThatPruned=557814
%%%mzn-stat: circuitNumber2PropagationsTotal=5828577
%%%mzn-stat: AverageConflictSize=23.853955927611796
%%%mzn-stat: NumUnitNogoodsLearned=0
%%%mzn-stat: AverageLearnedNogoodLength=37.67274127249807
%%%mzn-stat: AverageBacktrackAmount=0
%%%mzn-stat: AverageLbd=22.83431655402471
%%%mzn-stat: 2AutonomousSearchNumBackupCalled=3117
%%%mzn-stat: 2AutonomousSearchNumPredicatesRemoved=0
%%%mzn-stat: 2AutonomousSearchNumCalls=3120
%%%mzn-stat: 2AutonomousSearchNumPredicatesAdded=23888
%%%mzn-stat: 2AutonomousSearchAverageSizeOfHeap=9.039423076923077
%%%mzn-stat: 2AutonomousSearchNumAssignedPredicatesEncountered=28203
%%%mzn-stat-end
maxleg = 175;
succ = array1d(1..150,[26, 10, 14, 63, 22, 23, 29, 15, 18, 27, 13, 2, 43, 40, 48, 25, 19, 53, 9, 61, 41, 45, 52, 8, 37, 36, 72, 59, 33, 38, 12, 6, 68, 32, 24, 50, 71, 39, 47, 44, 66, 34, 51, 122, 78, 7, 49, 56, 67, 31, 65, 79, 76, 1, 62, 69, 77, 17, 60, 70, 73, 95, 132, 35, 87, 94, 128, 97, 101, 84, 108, 147, 85, 64, 54, 80, 103, 92, 46, 30, 21, 81, 96, 130, 109, 136, 140, 4, 135, 138, 93, 57, 86, 115, 90, 121, 105, 107, 11, 88, 141, 91, 118, 55, 110, 145, 142, 127, 116, 144, 106, 111, 139, 113, 117, 100, 124, 82, 58, 129, 114, 125, 98, 126, 150, 99, 120, 148, 112, 146, 104, 134, 149, 137, 42, 123, 3, 143, 75, 16, 28, 83, 20, 5, 74, 119, 89, 133, 131, 102]);
% time elapsed: 1050.96 s
----------
%%%mzn-stat: initTime=0.022007596
%%%mzn-stat: objective=174
%%%mzn-stat: nodes=5102181
%%%mzn-stat: restarts=0
%%%mzn-stat: peakDepth=1176
%%%mzn-stat: solveTime=1049.66373844
%%%mzn-stat: variables=1774
%%%mzn-stat: propagators=1432
%%%mzn-stat: failures=425982
%%%mzn-stat: propagations=48496516
%%%mzn-stat: nogoods=425982
%%%mzn-stat: numAtomicConstraintsPropagated=0
%%%mzn-stat: allDifferentNumber1TotalHallSetSize=4870038
%%%mzn-stat: allDifferentNumber1NumberOfConflicts=297072
%%%mzn-stat: allDifferentNumber1MaxHallSetSize=148
%%%mzn-stat: allDifferentNumber1PropagationsTotal=8783950
%%%mzn-stat: allDifferentNumber1PropagationsThatFoundConflict=297072
%%%mzn-stat: circuitNumber2PropagationsThatFoundConflict=101522
%%%mzn-stat: circuitNumber2TotalFixedEdgesAtConflict=8754547
%%%mzn-stat: circuitNumber2NumberOfConflicts=101522
%%%mzn-stat: circuitNumber2PropagationsThatPruned=557822
%%%mzn-stat: circuitNumber2PropagationsTotal=5828697
%%%mzn-stat: AverageConflictSize=23.853904625078055
%%%mzn-stat: NumUnitNogoodsLearned=0
%%%mzn-stat: AverageLearnedNogoodLength=37.6726739627496
%%%mzn-stat: AverageBacktrackAmount=0
%%%mzn-stat: AverageLbd=22.834272340145827
%%%mzn-stat: 2AutonomousSearchNumBackupCalled=4169
%%%mzn-stat: 2AutonomousSearchNumPredicatesRemoved=0
%%%mzn-stat: 2AutonomousSearchNumCalls=4173
%%%mzn-stat: 2AutonomousSearchNumPredicatesAdded=24121
%%%mzn-stat: 2AutonomousSearchAverageSizeOfHeap=9.80373831775701
%%%mzn-stat: 2AutonomousSearchNumAssignedPredicatesEncountered=40911
%%%mzn-stat-end
maxleg = 174;
succ = array1d(1..150,[26, 10, 14, 63, 22, 23, 29, 15, 18, 27, 13, 2, 43, 40, 48, 25, 19, 53, 9, 61, 41, 45, 52, 8, 37, 36, 72, 59, 33, 38, 12, 6, 97, 32, 24, 50, 71, 39, 47, 44, 66, 34, 51, 122, 78, 7, 49, 56, 67, 31, 65, 79, 76, 1, 62, 69, 77, 17, 60, 70, 73, 95, 132, 35, 87, 94, 128, 46, 101, 84, 108, 147, 85, 64, 54, 80, 103, 92, 68, 30, 21, 81, 96, 130, 109, 136, 140, 4, 135, 138, 93, 57, 86, 115, 90, 121, 105, 107, 11, 88, 141, 91, 118, 55, 110, 145, 142, 127, 116, 144, 106, 111, 139, 113, 117, 100, 124, 82, 58, 129, 114, 125, 98, 126, 150, 99, 120, 148, 112, 146, 104, 134, 149, 137, 42, 123, 3, 143, 75, 16, 28, 83, 20, 5, 74, 119, 89, 133, 131, 102]);
% time elapsed: 1050.99 s
----------
%%%mzn-stat: initTime=0.022007596
%%%mzn-stat: objective=169
%%%mzn-stat: nodes=5103317
%%%mzn-stat: restarts=0
%%%mzn-stat: peakDepth=1176
%%%mzn-stat: solveTime=1049.690647488
%%%mzn-stat: variables=1774
%%%mzn-stat: propagators=1432
%%%mzn-stat: failures=425983
%%%mzn-stat: propagations=48499339
%%%mzn-stat: nogoods=425983
%%%mzn-stat: numAtomicConstraintsPropagated=0
%%%mzn-stat: allDifferentNumber1TotalHallSetSize=4870038
%%%mzn-stat: allDifferentNumber1NumberOfConflicts=297072
%%%mzn-stat: allDifferentNumber1MaxHallSetSize=148
%%%mzn-stat: allDifferentNumber1PropagationsTotal=8784131
%%%mzn-stat: allDifferentNumber1PropagationsThatFoundConflict=297072
%%%mzn-stat: circuitNumber2PropagationsThatFoundConflict=101522
%%%mzn-stat: circuitNumber2TotalFixedEdgesAtConflict=8754547
%%%mzn-stat: circuitNumber2NumberOfConflicts=101522
%%%mzn-stat: circuitNumber2PropagationsThatPruned=557830
%%%mzn-stat: circuitNumber2PropagationsTotal=5828816
%%%mzn-stat: AverageConflictSize=23.85385332278518
%%%mzn-stat: NumUnitNogoodsLearned=0
%%%mzn-stat: AverageLearnedNogoodLength=37.67260900082867
%%%mzn-stat: AverageBacktrackAmount=0
%%%mzn-stat: AverageLbd=22.834232821497572
%%%mzn-stat: 2AutonomousSearchNumBackupCalled=5193
%%%mzn-stat: 2AutonomousSearchNumPredicatesRemoved=0
%%%mzn-stat: 2AutonomousSearchNumCalls=5198
%%%mzn-stat: 2AutonomousSearchNumPredicatesAdded=24333
%%%mzn-stat: 2AutonomousSearchAverageSizeOfHeap=10.31531358214698
%%%mzn-stat: 2AutonomousSearchNumAssignedPredicatesEncountered=53619
%%%mzn-stat-end
maxleg = 169;
succ = array1d(1..150,[26, 10, 14, 63, 22, 23, 29, 15, 18, 27, 13, 2, 43, 40, 48, 25, 19, 53, 9, 61, 41, 45, 52, 8, 37, 36, 72, 59, 33, 38, 12, 6, 105, 32, 24, 50, 71, 39, 47, 44, 66, 34, 51, 122, 78, 7, 49, 56, 67, 31, 65, 79, 76, 1, 62, 69, 77, 17, 60, 70, 73, 95, 132, 35, 87, 94, 128, 46, 101, 84, 108, 147, 85, 64, 54, 80, 103, 92, 68, 30, 21, 81, 96, 130, 109, 136, 140, 4, 135, 138, 93, 57, 86, 115, 90, 121, 110, 107, 11, 88, 141, 91, 118, 55, 97, 145, 142, 127, 116, 144, 106, 111, 139, 113, 117, 100, 124, 82, 58, 129, 114, 125, 98, 126, 150, 99, 120, 148, 112, 146, 104, 134, 149, 137, 42, 123, 3, 143, 75, 16, 28, 83, 20, 5, 74, 119, 89, 133, 131, 102]);
% time elapsed: 1051.02 s
----------
%%%mzn-stat: initTime=0.022007596
%%%mzn-stat: objective=165
%%%mzn-stat: nodes=5104446
%%%mzn-stat: restarts=0
%%%mzn-stat: peakDepth=1176
%%%mzn-stat: solveTime=1049.717666453
%%%mzn-stat: variables=1774
%%%mzn-stat: propagators=1432
%%%mzn-stat: failures=425983
%%%mzn-stat: propagations=48502115
%%%mzn-stat: nogoods=425983
%%%mzn-stat: numAtomicConstraintsPropagated=0
%%%mzn-stat: allDifferentNumber1TotalHallSetSize=4870038
%%%mzn-stat: allDifferentNumber1NumberOfConflicts=297072
%%%mzn-stat: allDifferentNumber1MaxHallSetSize=148
%%%mzn-stat: allDifferentNumber1PropagationsTotal=8784301
%%%mzn-stat: allDifferentNumber1PropagationsThatFoundConflict=297072
%%%mzn-stat: circuitNumber2PropagationsThatFoundConflict=101522
%%%mzn-stat: circuitNumber2TotalFixedEdgesAtConflict=8754547
%%%mzn-stat: circuitNumber2NumberOfConflicts=101522
%%%mzn-stat: circuitNumber2PropagationsThatPruned=557838
%%%mzn-stat: circuitNumber2PropagationsTotal=5828926
%%%mzn-stat: AverageConflictSize=23.85385332278518
%%%mzn-stat: NumUnitNogoodsLearned=0
%%%mzn-stat: AverageLearnedNogoodLength=37.67260900082867
%%%mzn-stat: AverageBacktrackAmount=0
%%%mzn-stat: AverageLbd=22.834232821497572
%%%mzn-stat: 2AutonomousSearchNumBackupCalled=6219
%%%mzn-stat: 2AutonomousSearchNumPredicatesRemoved=0
%%%mzn-stat: 2AutonomousSearchNumCalls=6225
%%%mzn-stat: 2AutonomousSearchNumPredicatesAdded=24333
%%%mzn-stat: 2AutonomousSearchAverageSizeOfHeap=10.654939759036145
%%%mzn-stat: 2AutonomousSearchNumAssignedPredicatesEncountered=66327
%%%mzn-stat-end
maxleg = 165;
succ = array1d(1..150,[26, 10, 14, 63, 22, 23, 29, 15, 18, 27, 13, 2, 43, 40, 48, 25, 19, 53, 9, 61, 41, 45, 52, 8, 37, 36, 72, 59, 33, 38, 12, 6, 105, 32, 24, 50, 71, 39, 47, 44, 66, 34, 51, 122, 78, 7, 49, 56, 67, 31, 65, 79, 76, 1, 62, 69, 77, 17, 60, 70, 73, 95, 132, 35, 87, 94, 128, 46, 101, 84, 108, 147, 85, 64, 54, 80, 103, 92, 68, 30, 21, 81, 96, 130, 109, 136, 140, 4, 135, 138, 93, 57, 86, 115, 90, 121, 110, 107, 11, 88, 141, 91, 118, 55, 97, 145, 142, 127, 116, 144, 106, 111, 139, 113, 124, 100, 126, 82, 58, 129, 114, 125, 98, 117, 150, 99, 120, 148, 112, 146, 104, 134, 149, 137, 42, 123, 3, 143, 75, 16, 28, 83, 20, 5, 74, 119, 89, 133, 131, 102]);
% time elapsed: 1051.05 s
----------
%%%mzn-stat: initTime=0.022007596
%%%mzn-stat: objective=162
%%%mzn-stat: nodes=5109770
%%%mzn-stat: restarts=0
%%%mzn-stat: peakDepth=1176
%%%mzn-stat: solveTime=1050.679666359
%%%mzn-stat: variables=1774
%%%mzn-stat: propagators=1432
%%%mzn-stat: failures=426701
%%%mzn-stat: propagations=48557878
%%%mzn-stat: nogoods=426701
%%%mzn-stat: numAtomicConstraintsPropagated=0
%%%mzn-stat: allDifferentNumber1TotalHallSetSize=4874845
%%%mzn-stat: allDifferentNumber1NumberOfConflicts=297692
%%%mzn-stat: allDifferentNumber1MaxHallSetSize=148
%%%mzn-stat: allDifferentNumber1PropagationsTotal=8791932
%%%mzn-stat: allDifferentNumber1PropagationsThatFoundConflict=297692
%%%mzn-stat: circuitNumber2PropagationsThatFoundConflict=101564
%%%mzn-stat: circuitNumber2TotalFixedEdgesAtConflict=8760067
%%%mzn-stat: circuitNumber2NumberOfConflicts=101564
%%%mzn-stat: circuitNumber2PropagationsThatPruned=558781
%%%mzn-stat: circuitNumber2PropagationsTotal=5834065
%%%mzn-stat: AverageConflictSize=23.843079814671164
%%%mzn-stat: NumUnitNogoodsLearned=0
%%%mzn-stat: AverageLearnedNogoodLength=37.661177264641985
%%%mzn-stat: AverageBacktrackAmount=0
%%%mzn-stat: AverageLbd=22.8217065345523
%%%mzn-stat: 2AutonomousSearchNumBackupCalled=7242
%%%mzn-stat: 2AutonomousSearchNumPredicatesRemoved=0
%%%mzn-stat: 2AutonomousSearchNumCalls=7249
%%%mzn-stat: 2AutonomousSearchNumPredicatesAdded=27869
%%%mzn-stat: 2AutonomousSearchAverageSizeOfHeap=11.008277003724652
%%%mzn-stat: 2AutonomousSearchNumAssignedPredicatesEncountered=79799
%%%mzn-stat-end
maxleg = 162;
succ = array1d(1..150,[26, 10, 14, 63, 22, 23, 29, 15, 18, 27, 13, 2, 43, 40, 48, 25, 19, 53, 9, 61, 41, 45, 52, 8, 37, 36, 72, 59, 33, 38, 12, 6, 105, 32, 24, 50, 71, 39, 47, 44, 66, 34, 51, 122, 78, 7, 49, 56, 67, 31, 65, 79, 76, 1, 62, 69, 77, 17, 60, 70, 73, 95, 132, 35, 103, 94, 128, 46, 101, 84, 108, 147, 85, 64, 54, 80, 87, 92, 68, 30, 21, 81, 96, 130, 109, 136, 118, 4, 135, 138, 93, 57, 86, 115, 90, 121, 110, 107, 11, 88, 141, 91, 140, 55, 97, 145, 142, 127, 116, 144, 106, 111, 139, 113, 124, 100, 126, 82, 58, 129, 114, 125, 98, 117, 150, 99, 120, 148, 112, 146, 104, 134, 149, 137, 42, 123, 3, 143, 75, 16, 28, 83, 20, 5, 74, 119, 89, 133, 131, 102]);
% time elapsed: 1052.02 s
----------
%%%mzn-stat: initTime=0.022007596
%%%mzn-stat: objective=161
%%%mzn-stat: nodes=5111374
%%%mzn-stat: restarts=0
%%%mzn-stat: peakDepth=1176
%%%mzn-stat: solveTime=1050.777327003
%%%mzn-stat: variables=1774
%%%mzn-stat: propagators=1432
%%%mzn-stat: failures=426727
%%%mzn-stat: propagations=48566088
%%%mzn-stat: nogoods=426727
%%%mzn-stat: numAtomicConstraintsPropagated=0
%%%mzn-stat: allDifferentNumber1TotalHallSetSize=4875161
%%%mzn-stat: allDifferentNumber1NumberOfConflicts=297718
%%%mzn-stat: allDifferentNumber1MaxHallSetSize=148
%%%mzn-stat: allDifferentNumber1PropagationsTotal=8792813
%%%mzn-stat: allDifferentNumber1PropagationsThatFoundConflict=297718
%%%mzn-stat: circuitNumber2PropagationsThatFoundConflict=101564
%%%mzn-stat: circuitNumber2TotalFixedEdgesAtConflict=8760067
%%%mzn-stat: circuitNumber2NumberOfConflicts=101564
%%%mzn-stat: circuitNumber2PropagationsThatPruned=558874
%%%mzn-stat: circuitNumber2PropagationsTotal=5834739
%%%mzn-stat: AverageConflictSize=23.84263943926679
%%%mzn-stat: NumUnitNogoodsLearned=0
%%%mzn-stat: AverageLearnedNogoodLength=37.6599324626752
%%%mzn-stat: AverageBacktrackAmount=0
%%%mzn-stat: AverageLbd=22.820852676301243
%%%mzn-stat: 2AutonomousSearchNumBackupCalled=8259
%%%mzn-stat: 2AutonomousSearchNumPredicatesRemoved=0
%%%mzn-stat: 2AutonomousSearchNumCalls=8267
%%%mzn-stat: 2AutonomousSearchNumPredicatesAdded=28377
%%%mzn-stat: 2AutonomousSearchAverageSizeOfHeap=11.289464134510705
%%%mzn-stat: 2AutonomousSearchNumAssignedPredicatesEncountered=93330
%%%mzn-stat-end
maxleg = 161;
succ = array1d(1..150,[26, 10, 14, 63, 22, 23, 29, 15, 18, 27, 13, 2, 43, 40, 48, 25, 19, 53, 9, 61, 41, 45, 52, 8, 37, 36, 72, 59, 33, 38, 12, 6, 105, 32, 24, 50, 71, 39, 47, 44, 66, 34, 51, 122, 78, 7, 49, 56, 67, 31, 65, 79, 76, 1, 62, 69, 77, 17, 60, 70, 85, 95, 132, 35, 103, 94, 128, 46, 101, 84, 108, 147, 20, 64, 54, 80, 87, 92, 68, 30, 21, 81, 96, 130, 109, 136, 118, 4, 135, 73, 93, 57, 86, 115, 90, 121, 110, 107, 11, 88, 141, 91, 140, 55, 97, 145, 142, 127, 138, 144, 106, 111, 139, 113, 124, 100, 126, 82, 58, 129, 114, 125, 98, 117, 150, 99, 120, 148, 112, 146, 104, 134, 149, 137, 42, 123, 3, 143, 75, 16, 28, 83, 116, 5, 74, 119, 89, 133, 131, 102]);
% time elapsed: 1052.13 s
----------
%%%mzn-stat: initTime=0.022007596
%%%mzn-stat: objective=154
%%%mzn-stat: nodes=5113989
%%%mzn-stat: restarts=0
%%%mzn-stat: peakDepth=1176
%%%mzn-stat: solveTime=1051.186494922
%%%mzn-stat: variables=1774
%%%mzn-stat: propagators=1432
%%%mzn-stat: failures=427133
%%%mzn-stat: propagations=48586635
%%%mzn-stat: nogoods=427133
%%%mzn-stat: numAtomicConstraintsPropagated=0
%%%mzn-stat: allDifferentNumber1TotalHallSetSize=4878273
%%%mzn-stat: allDifferentNumber1NumberOfConflicts=297958
%%%mzn-stat: allDifferentNumber1MaxHallSetSize=148
%%%mzn-stat: allDifferentNumber1PropagationsTotal=8795403
%%%mzn-stat: allDifferentNumber1PropagationsThatFoundConflict=297958
%%%mzn-stat: circuitNumber2PropagationsThatFoundConflict=101564
%%%mzn-stat: circuitNumber2TotalFixedEdgesAtConflict=8760067
%%%mzn-stat: circuitNumber2NumberOfConflicts=101564
%%%mzn-stat: circuitNumber2PropagationsThatPruned=559020
%%%mzn-stat: circuitNumber2PropagationsTotal=5836305
%%%mzn-stat: AverageConflictSize=23.839511346582913
%%%mzn-stat: NumUnitNogoodsLearned=0
%%%mzn-stat: AverageLearnedNogoodLength=37.660974450580966
%%%mzn-stat: AverageBacktrackAmount=0
%%%mzn-stat: AverageLbd=22.815778691882855
%%%mzn-stat: 2AutonomousSearchNumBackupCalled=9234
%%%mzn-stat: 2AutonomousSearchNumPredicatesRemoved=0
%%%mzn-stat: 2AutonomousSearchNumCalls=9243
%%%mzn-stat: 2AutonomousSearchNumPredicatesAdded=30767
%%%mzn-stat: 2AutonomousSearchAverageSizeOfHeap=11.570269393054204
%%%mzn-stat: 2AutonomousSearchNumAssignedPredicatesEncountered=106944
%%%mzn-stat-end
maxleg = 154;
succ = array1d(1..150,[26, 10, 14, 63, 22, 23, 29, 15, 18, 27, 13, 2, 43, 40, 48, 25, 19, 53, 9, 61, 41, 45, 52, 8, 71, 36, 72, 59, 33, 38, 12, 6, 105, 32, 24, 50, 16, 39, 47, 44, 66, 34, 51, 122, 78, 7, 49, 56, 67, 31, 65, 79, 76, 1, 62, 69, 77, 17, 60, 70, 85, 95, 132, 35, 103, 94, 128, 46, 101, 84, 108, 147, 20, 64, 54, 80, 87, 92, 68, 30, 21, 81, 96, 130, 109, 136, 118, 4, 135, 73, 93, 57, 86, 115, 90, 121, 110, 107, 11, 88, 141, 91, 140, 55, 97, 145, 142, 127, 138, 144, 106, 111, 139, 113, 124, 100, 126, 82, 58, 129, 114, 125, 98, 117, 150, 99, 120, 148, 112, 146, 104, 134, 149, 137, 42, 123, 3, 143, 75, 37, 28, 83, 116, 5, 74, 119, 89, 133, 131, 102]);
% time elapsed: 1052.54 s
----------
%%%mzn-stat: initTime=0.022007596
%%%mzn-stat: objective=151
%%%mzn-stat: nodes=5115095
%%%mzn-stat: restarts=0
%%%mzn-stat: peakDepth=1176
%%%mzn-stat: solveTime=1051.216076187
%%%mzn-stat: variables=1774
%%%mzn-stat: propagators=1432
%%%mzn-stat: failures=427136
%%%mzn-stat: propagations=48589804
%%%mzn-stat: nogoods=427136
%%%mzn-stat: numAtomicConstraintsPropagated=0
%%%mzn-stat: allDifferentNumber1TotalHallSetSize=4878273
%%%mzn-stat: allDifferentNumber1NumberOfConflicts=297958
%%%mzn-stat: allDifferentNumber1MaxHallSetSize=148
%%%mzn-stat: allDifferentNumber1PropagationsTotal=8795607
%%%mzn-stat: allDifferentNumber1PropagationsThatFoundConflict=297958
%%%mzn-stat: circuitNumber2PropagationsThatFoundConflict=101565
%%%mzn-stat: circuitNumber2TotalFixedEdgesAtConflict=8760202
%%%mzn-stat: circuitNumber2NumberOfConflicts=101565
%%%mzn-stat: circuitNumber2PropagationsThatPruned=559034
%%%mzn-stat: circuitNumber2PropagationsTotal=5836447
%%%mzn-stat: AverageConflictSize=23.839362638597542
%%%mzn-stat: NumUnitNogoodsLearned=0
%%%mzn-stat: AverageLearnedNogoodLength=37.66080592598142
%%%mzn-stat: AverageBacktrackAmount=0
%%%mzn-stat: AverageLbd=22.81568165642793
%%%mzn-stat: 2AutonomousSearchNumBackupCalled=10211
%%%mzn-stat: 2AutonomousSearchNumPredicatesRemoved=0
%%%mzn-stat: 2AutonomousSearchNumCalls=10221
%%%mzn-stat: 2AutonomousSearchNumPredicatesAdded=31010
%%%mzn-stat: 2AutonomousSearchAverageSizeOfHeap=11.795127678309363
%%%mzn-stat: 2AutonomousSearchNumAssignedPredicatesEncountered=120558
%%%mzn-stat-end
maxleg = 151;
succ = array1d(1..150,[26, 10, 14, 63, 22, 23, 29, 15, 18, 27, 13, 2, 43, 40, 48, 25, 19, 53, 9, 61, 41, 45, 52, 8, 71, 36, 72, 59, 33, 38, 12, 6, 105, 32, 24, 50, 16, 39, 47, 44, 66, 34, 51, 122, 78, 7, 49, 56, 67, 31, 65, 79, 76, 1, 62, 69, 77, 17, 60, 70, 85, 95, 132, 35, 103, 94, 128, 46, 101, 84, 108, 147, 20, 64, 54, 80, 87, 92, 68, 30, 21, 81, 96, 130, 109, 136, 118, 4, 135, 73, 93, 106, 86, 115, 90, 121, 110, 107, 11, 88, 141, 91, 140, 55, 97, 111, 142, 127, 138, 144, 112, 57, 139, 113, 124, 100, 126, 82, 58, 129, 114, 125, 98, 117, 150, 99, 120, 148, 145, 146, 104, 134, 149, 137, 42, 123, 3, 143, 75, 37, 28, 83, 116, 5, 74, 119, 89, 133, 131, 102]);
% time elapsed: 1052.58 s
----------
%%%mzn-stat: initTime=0.022007596
%%%mzn-stat: objective=151
%%%mzn-stat: nodes=5500312
%%%mzn-stat: restarts=0
%%%mzn-stat: peakDepth=1176
%%%mzn-stat: solveTime=1798.650181781
%%%mzn-stat: variables=1774
%%%mzn-stat: propagators=1432
%%%mzn-stat: failures=751438
%%%mzn-stat: propagations=58658570
%%%mzn-stat: nogoods=751438
%%%mzn-stat: numAtomicConstraintsPropagated=0
%%%mzn-stat: allDifferentNumber1TotalHallSetSize=5086767
%%%mzn-stat: allDifferentNumber1NumberOfConflicts=400533
%%%mzn-stat: allDifferentNumber1MaxHallSetSize=148
%%%mzn-stat: allDifferentNumber1PropagationsTotal=9900808
%%%mzn-stat: allDifferentNumber1PropagationsThatFoundConflict=400533
%%%mzn-stat: circuitNumber2PropagationsThatFoundConflict=322693
%%%mzn-stat: circuitNumber2TotalFixedEdgesAtConflict=41116516
%%%mzn-stat: circuitNumber2NumberOfConflicts=322693
%%%mzn-stat: circuitNumber2PropagationsThatPruned=764841
%%%mzn-stat: circuitNumber2PropagationsTotal=6719085
%%%mzn-stat: AverageConflictSize=53.10838419137707
%%%mzn-stat: NumUnitNogoodsLearned=0
%%%mzn-stat: AverageLearnedNogoodLength=73.02011609740258
%%%mzn-stat: AverageBacktrackAmount=0
%%%mzn-stat: AverageLbd=48.13837735115871
%%%mzn-stat: 2AutonomousSearchNumBackupCalled=10211
%%%mzn-stat: 2AutonomousSearchNumPredicatesRemoved=0
%%%mzn-stat: 2AutonomousSearchNumCalls=10221
%%%mzn-stat: 2AutonomousSearchNumPredicatesAdded=38822
%%%mzn-stat: 2AutonomousSearchAverageSizeOfHeap=11.795127678309363
%%%mzn-stat: 2AutonomousSearchNumAssignedPredicatesEncountered=120558
%%%mzn-stat-end
